Data path: /scratch/opt/lxu/CFLG/benchmarks/Kgroup_A
Instance: K100.5.con.red
Result path: /scratch/opt/lxu/CFLG/results/Kgroup_A
Solver: Gurobi
Time limit: 7200
Formulation: LEFPAD
Cover: Small
julia --project=. src/main.jl /scratch/opt/lxu/CFLG/benchmarks/Kgroup_A K100.5.con.red /scratch/opt/lxu/CFLG/results/Kgroup_A Gurobi 7200 LEFPAD Small
The latest version of Julia in the `release` channel is 1.11.5+0.x64.linux.gnu. You currently have `1.11.4+0.x64.linux.gnu` installed. Run:

  juliaup update

in your terminal shell to install Julia 1.11.5+0.x64.linux.gnu and update the `release` channel to that version.
/scratch/opt/lxu/CFLG/benchmarks/Kgroup_A Gurobi 7200.0 /scratch/opt/lxu/CFLG/results/Kgroup_A K100.5.con.red LEFPAD Small
/scratch/opt/lxu/CFLG/benchmarks/Kgroup_A/K100.5.con.red

 read graph
data loaded


after absorb:31 31

max_piece:22
problem_graph/original graph: node: 41/31 edge: 130/120 dlt: 0.0479409179935607 break_avg_len: 0.1770126202839166 break_max_len: 1.0Vbar/V, Ebar/E(41, 41, 130, 130)
Set parameter TokenServer to value "solice01.zib.de"
Set parameter Threads to value 1
Set parameter OutputFlag to value 1
Gurobi Optimizer version 12.0.1 build v12.0.1rc0 (linux64 - "Debian GNU/Linux 12 (bookworm)")

CPU model: Intel(R) Xeon(R) Gold 5222 CPU @ 3.80GHz, instruction set [SSE2|AVX|AVX2|AVX512]
Thread count: 8 physical cores, 16 logical processors, using up to 1 threads

Non-default parameters:
Threads  1

Optimize a model with 171 rows, 390 columns and 650 nonzeros
Model fingerprint: 0x35ea8154
Coefficient statistics:
  Matrix range     [1e+00, 1e+00]
  Objective range  [1e+00, 1e+00]
  Bounds range     [1e+00, 1e+00]
  RHS range        [0e+00, 0e+00]
Presolve removed 171 rows and 390 columns
Presolve time: 0.00s
Presolve: All rows and columns removed
Iteration    Objective       Primal Inf.    Dual Inf.      Time
       0   -0.0000000e+00   0.000000e+00   0.000000e+00      0s

Solved in 0 iterations and 0.00 seconds (0.00 work units)
Optimal objective -0.000000000e+00

User-callback calls 35, time in user-callback 0.00 sec
elapsed CPU time: 0.994565 seconds
Set parameter TokenServer to value "solice01.zib.de"
Set parameter Threads to value 1
Set parameter OutputFlag to value 1
Set parameter MIPGap to value 0.0001
Set parameter MIPGapAbs to value 0.999998
Set parameter TimeLimit to value 7199.005435

 more cuts: false 0.0479409179935607 false
is_attach:trueformulation:LEFPAD0 130 0

 model loaded

Gurobi Optimizer version 12.0.1 build v12.0.1rc0 (linux64 - "Debian GNU/Linux 12 (bookworm)")

CPU model: Intel(R) Xeon(R) Gold 5222 CPU @ 3.80GHz, instruction set [SSE2|AVX|AVX2|AVX512]
Thread count: 8 physical cores, 16 logical processors, using up to 1 threads

Non-default parameters:
TimeLimit  7199.005435
MIPGapAbs  0.999998
Threads  1

Optimize a model with 2552 rows, 1943 columns and 7102 nonzeros
Model fingerprint: 0x13330751
Variable types: 951 continuous, 992 integer (992 binary)
Coefficient statistics:
  Matrix range     [5e-08, 1e+00]
  Objective range  [1e+00, 1e+00]
  Bounds range     [1e-02, 1e+00]
  RHS range        [1e-02, 1e+00]
Found heuristic solution: objective 130.0000000
Presolve removed 1414 rows and 543 columns
Presolve time: 0.01s
Presolved: 1138 rows, 1400 columns, 4336 nonzeros
Variable types: 750 continuous, 650 integer (650 binary)

Root relaxation: objective 1.030000e+02, 516 iterations, 0.00 seconds (0.00 work units)

    Nodes    |    Current Node    |     Objective Bounds      |     Work
 Expl Unexpl |  Obj  Depth IntInf | Incumbent    BestBd   Gap | It/Node Time

     0     0  103.00000    0    6  130.00000  103.00000  20.8%     -    0s
H    0     0                     103.0000000  103.00000  0.00%     -    0s
     0     0  103.00000    0    6  103.00000  103.00000  0.00%     -    0s

Explored 1 nodes (516 simplex iterations) in 0.02 seconds (0.02 work units)
Thread count was 1 (of 16 available processors)

Solution count 2: 103 130 

Optimal solution found (tolerance 1.00e-04)
Best objective 1.030000000000e+02, best bound 1.030000000000e+02, gap 0.0000%

User-callback calls 365, time in user-callback 0.00 sec

 sepatime0 0 0
103.0Stat(MathOptInterface.OPTIMAL, 103.0, 103.0, 0.0, 0.0, 0.994565, 0.02485179901123047, 1, Main.CFLG.LEFPAD, "", #undef)
